# Solution for model BargeScheduling
# Objective value = 5177
f_ck[0,0] 0
f_ck[0,1] 0
f_ck[0,2] 0
f_ck[0,3] 1
f_ck[0,4] 0
f_ck[1,0] 0
f_ck[1,1] 1
f_ck[1,2] 0
f_ck[1,3] 0
f_ck[1,4] 0
f_ck[2,0] 0
f_ck[2,1] 1
f_ck[2,2] 0
f_ck[2,3] 0
f_ck[2,4] 0
f_ck[3,0] 0
f_ck[3,1] 0
f_ck[3,2] 0
f_ck[3,3] 1
f_ck[3,4] 0
f_ck[4,0] 0
f_ck[4,1] 1
f_ck[4,2] 0
f_ck[4,3] 0
f_ck[4,4] 0
f_ck[5,0] 0
f_ck[5,1] 1
f_ck[5,2] 0
f_ck[5,3] 0
f_ck[5,4] 0
f_ck[6,0] 0
f_ck[6,1] 0
f_ck[6,2] 0
f_ck[6,3] 1
f_ck[6,4] 0
f_ck[7,0] 0
f_ck[7,1] 0
f_ck[7,2] 0
f_ck[7,3] 1
f_ck[7,4] 0
f_ck[8,0] 0
f_ck[8,1] 0
f_ck[8,2] 0
f_ck[8,3] 1
f_ck[8,4] 0
f_ck[9,0] 0
f_ck[9,1] 1
f_ck[9,2] 0
f_ck[9,3] 0
f_ck[9,4] 0
f_ck[10,0] 0
f_ck[10,1] 1
f_ck[10,2] 0
f_ck[10,3] 0
f_ck[10,4] 0
f_ck[11,0] 0
f_ck[11,1] 1
f_ck[11,2] 0
f_ck[11,3] 0
f_ck[11,4] 0
f_ck[12,0] 0
f_ck[12,1] 0
f_ck[12,2] 0
f_ck[12,3] 1
f_ck[12,4] 0
f_ck[13,0] 0
f_ck[13,1] 1
f_ck[13,2] 0
f_ck[13,3] 0
f_ck[13,4] 0
f_ck[14,0] 0
f_ck[14,1] 0
f_ck[14,2] 0
f_ck[14,3] 1
f_ck[14,4] 0
f_ck[15,0] 0
f_ck[15,1] 1
f_ck[15,2] 0
f_ck[15,3] 0
f_ck[15,4] 0
f_ck[16,0] 0
f_ck[16,1] 1
f_ck[16,2] 0
f_ck[16,3] 0
f_ck[16,4] 0
f_ck[17,0] 0
f_ck[17,1] 1
f_ck[17,2] 0
f_ck[17,3] 0
f_ck[17,4] 0
f_ck[18,0] 0
f_ck[18,1] 0
f_ck[18,2] 0
f_ck[18,3] 1
f_ck[18,4] 0
f_ck[19,0] 0
f_ck[19,1] 1
f_ck[19,2] 0
f_ck[19,3] 0
f_ck[19,4] 0
f_ck[20,0] 0
f_ck[20,1] 1
f_ck[20,2] 0
f_ck[20,3] 0
f_ck[20,4] 0
f_ck[21,0] 0
f_ck[21,1] 1
f_ck[21,2] 0
f_ck[21,3] 0
f_ck[21,4] 0
f_ck[22,0] 0
f_ck[22,1] 0
f_ck[22,2] 0
f_ck[22,3] 1
f_ck[22,4] 0
f_ck[23,0] 0
f_ck[23,1] 1
f_ck[23,2] 0
f_ck[23,3] 0
f_ck[23,4] 0
f_ck[24,0] 0
f_ck[24,1] 1
f_ck[24,2] 0
f_ck[24,3] 0
f_ck[24,4] 0
f_ck[25,0] 0
f_ck[25,1] 1
f_ck[25,2] 0
f_ck[25,3] 0
f_ck[25,4] 0
f_ck[26,0] 0
f_ck[26,1] 1
f_ck[26,2] 0
f_ck[26,3] 0
f_ck[26,4] 0
f_ck[27,0] 0
f_ck[27,1] 1
f_ck[27,2] 0
f_ck[27,3] 0
f_ck[27,4] 0
f_ck[28,0] 0
f_ck[28,1] 0
f_ck[28,2] 0
f_ck[28,3] 1
f_ck[28,4] 0
f_ck[29,0] 0
f_ck[29,1] 1
f_ck[29,2] 0
f_ck[29,3] 0
f_ck[29,4] 0
f_ck[30,0] 0
f_ck[30,1] 1
f_ck[30,2] 0
f_ck[30,3] 0
f_ck[30,4] 0
f_ck[31,0] 0
f_ck[31,1] 0
f_ck[31,2] 0
f_ck[31,3] 1
f_ck[31,4] 0
f_ck[32,0] 0
f_ck[32,1] 1
f_ck[32,2] 0
f_ck[32,3] 0
f_ck[32,4] 0
f_ck[33,0] 0
f_ck[33,1] 0
f_ck[33,2] 0
f_ck[33,3] 1
f_ck[33,4] 0
f_ck[34,0] 0
f_ck[34,1] 1
f_ck[34,2] 0
f_ck[34,3] 0
f_ck[34,4] 0
f_ck[35,0] 0
f_ck[35,1] 1
f_ck[35,2] 0
f_ck[35,3] 0
f_ck[35,4] 0
f_ck[36,0] 0
f_ck[36,1] 1
f_ck[36,2] 0
f_ck[36,3] 0
f_ck[36,4] 0
f_ck[37,0] 0
f_ck[37,1] 1
f_ck[37,2] 0
f_ck[37,3] 0
f_ck[37,4] 0
f_ck[38,0] 0
f_ck[38,1] 0
f_ck[38,2] 0
f_ck[38,3] 1
f_ck[38,4] 0
f_ck[39,0] 0
f_ck[39,1] 1
f_ck[39,2] 0
f_ck[39,3] 0
f_ck[39,4] 0
f_ck[40,0] 0
f_ck[40,1] 1
f_ck[40,2] 0
f_ck[40,3] 0
f_ck[40,4] 0
f_ck[41,0] 0
f_ck[41,1] 0
f_ck[41,2] 0
f_ck[41,3] 1
f_ck[41,4] 0
f_ck[42,0] 0
f_ck[42,1] 0
f_ck[42,2] 0
f_ck[42,3] 1
f_ck[42,4] 0
f_ck[43,0] 0
f_ck[43,1] 1
f_ck[43,2] 0
f_ck[43,3] 0
f_ck[43,4] 0
f_ck[44,0] 0
f_ck[44,1] 0
f_ck[44,2] 0
f_ck[44,3] 1
f_ck[44,4] 0
f_ck[45,0] 0
f_ck[45,1] 1
f_ck[45,2] 0
f_ck[45,3] 0
f_ck[45,4] 0
f_ck[46,0] 0
f_ck[46,1] 1
f_ck[46,2] 0
f_ck[46,3] 0
f_ck[46,4] 0
f_ck[47,0] 0
f_ck[47,1] 0
f_ck[47,2] 0
f_ck[47,3] 1
f_ck[47,4] 0
f_ck[48,0] 0
f_ck[48,1] 1
f_ck[48,2] 0
f_ck[48,3] 0
f_ck[48,4] 0
f_ck[49,0] 0
f_ck[49,1] 0
f_ck[49,2] 0
f_ck[49,3] 1
f_ck[49,4] 0
f_ck[50,0] 0
f_ck[50,1] 1
f_ck[50,2] 0
f_ck[50,3] 0
f_ck[50,4] 0
f_ck[51,0] 0
f_ck[51,1] 1
f_ck[51,2] 0
f_ck[51,3] 0
f_ck[51,4] 0
f_ck[52,0] 0
f_ck[52,1] 0
f_ck[52,2] 0
f_ck[52,3] 1
f_ck[52,4] 0
f_ck[53,0] 0
f_ck[53,1] 1
f_ck[53,2] 0
f_ck[53,3] 0
f_ck[53,4] 0
f_ck[54,0] 0
f_ck[54,1] 1
f_ck[54,2] 0
f_ck[54,3] 0
f_ck[54,4] 0
f_ck[55,0] 0
f_ck[55,1] 1
f_ck[55,2] 0
f_ck[55,3] 0
f_ck[55,4] 0
f_ck[56,0] 0
f_ck[56,1] 0
f_ck[56,2] 0
f_ck[56,3] 1
f_ck[56,4] 0
f_ck[57,0] 0
f_ck[57,1] 1
f_ck[57,2] 0
f_ck[57,3] 0
f_ck[57,4] 0
f_ck[58,0] 0
f_ck[58,1] 0
f_ck[58,2] 0
f_ck[58,3] 1
f_ck[58,4] 0
f_ck[59,0] 0
f_ck[59,1] 1
f_ck[59,2] 0
f_ck[59,3] 0
f_ck[59,4] 0
f_ck[60,0] 0
f_ck[60,1] 1
f_ck[60,2] 0
f_ck[60,3] 0
f_ck[60,4] 0
f_ck[61,0] 0
f_ck[61,1] 1
f_ck[61,2] 0
f_ck[61,3] 0
f_ck[61,4] 0
f_ck[62,0] 0
f_ck[62,1] 1
f_ck[62,2] 0
f_ck[62,3] 0
f_ck[62,4] 0
f_ck[63,0] 0
f_ck[63,1] 1
f_ck[63,2] 0
f_ck[63,3] 0
f_ck[63,4] 0
f_ck[64,0] 0
f_ck[64,1] 0
f_ck[64,2] 0
f_ck[64,3] 1
f_ck[64,4] 0
f_ck[65,0] 0
f_ck[65,1] 1
f_ck[65,2] 0
f_ck[65,3] 0
f_ck[65,4] 0
f_ck[66,0] 0
f_ck[66,1] 1
f_ck[66,2] 0
f_ck[66,3] 0
f_ck[66,4] 0
f_ck[67,0] 0
f_ck[67,1] 0
f_ck[67,2] 0
f_ck[67,3] 1
f_ck[67,4] 0
f_ck[68,0] 0
f_ck[68,1] 1
f_ck[68,2] 0
f_ck[68,3] 0
f_ck[68,4] 0
f_ck[69,0] 0
f_ck[69,1] 1
f_ck[69,2] 0
f_ck[69,3] 0
f_ck[69,4] 0
f_ck[70,0] 0
f_ck[70,1] 1
f_ck[70,2] 0
f_ck[70,3] 0
f_ck[70,4] 0
f_ck[71,0] 0
f_ck[71,1] 1
f_ck[71,2] 0
f_ck[71,3] 0
f_ck[71,4] 0
f_ck[72,0] 0
f_ck[72,1] 1
f_ck[72,2] 0
f_ck[72,3] 0
f_ck[72,4] 0
f_ck[73,0] 0
f_ck[73,1] 0
f_ck[73,2] 0
f_ck[73,3] 1
f_ck[73,4] 0
f_ck[74,0] 0
f_ck[74,1] 0
f_ck[74,2] 0
f_ck[74,3] 1
f_ck[74,4] 0
f_ck[75,0] 0
f_ck[75,1] 0
f_ck[75,2] 0
f_ck[75,3] 1
f_ck[75,4] 0
f_ck[76,0] 0
f_ck[76,1] 1
f_ck[76,2] 0
f_ck[76,3] 0
f_ck[76,4] 0
f_ck[77,0] 0
f_ck[77,1] 0
f_ck[77,2] 0
f_ck[77,3] 1
f_ck[77,4] 0
f_ck[78,0] 0
f_ck[78,1] 0
f_ck[78,2] 0
f_ck[78,3] 1
f_ck[78,4] 0
f_ck[79,0] 0
f_ck[79,1] 0
f_ck[79,2] 0
f_ck[79,3] 1
f_ck[79,4] 0
f_ck[80,0] 0
f_ck[80,1] 0
f_ck[80,2] 0
f_ck[80,3] 1
f_ck[80,4] 0
f_ck[81,0] 0
f_ck[81,1] 0
f_ck[81,2] 0
f_ck[81,3] 1
f_ck[81,4] 0
f_ck[82,0] 0
f_ck[82,1] 1
f_ck[82,2] 0
f_ck[82,3] 0
f_ck[82,4] 0
f_ck[83,0] 0
f_ck[83,1] 1
f_ck[83,2] 0
f_ck[83,3] 0
f_ck[83,4] 0
f_ck[84,0] 0
f_ck[84,1] 0
f_ck[84,2] 0
f_ck[84,3] 1
f_ck[84,4] 0
f_ck[85,0] 0
f_ck[85,1] 1
f_ck[85,2] 0
f_ck[85,3] 0
f_ck[85,4] 0
f_ck[86,0] 0
f_ck[86,1] 0
f_ck[86,2] 0
f_ck[86,3] 1
f_ck[86,4] 0
f_ck[87,0] 0
f_ck[87,1] 1
f_ck[87,2] 0
f_ck[87,3] 0
f_ck[87,4] 0
f_ck[88,0] 0
f_ck[88,1] 0
f_ck[88,2] 0
f_ck[88,3] 1
f_ck[88,4] 0
f_ck[89,0] 0
f_ck[89,1] 1
f_ck[89,2] 0
f_ck[89,3] 0
f_ck[89,4] 0
f_ck[90,0] 0
f_ck[90,1] 1
f_ck[90,2] 0
f_ck[90,3] 0
f_ck[90,4] 0
f_ck[91,0] 0
f_ck[91,1] 1
f_ck[91,2] 0
f_ck[91,3] 0
f_ck[91,4] 0
f_ck[92,0] 0
f_ck[92,1] 0
f_ck[92,2] 0
f_ck[92,3] 1
f_ck[92,4] 0
f_ck[93,0] 0
f_ck[93,1] 1
f_ck[93,2] 0
f_ck[93,3] 0
f_ck[93,4] 0
f_ck[94,0] 0
f_ck[94,1] 1
f_ck[94,2] 0
f_ck[94,3] 0
f_ck[94,4] 0
f_ck[95,0] 0
f_ck[95,1] 1
f_ck[95,2] 0
f_ck[95,3] 0
f_ck[95,4] 0
f_ck[96,0] 0
f_ck[96,1] 1
f_ck[96,2] 0
f_ck[96,3] 0
f_ck[96,4] 0
f_ck[97,0] 0
f_ck[97,1] 1
f_ck[97,2] 0
f_ck[97,3] 0
f_ck[97,4] 0
f_ck[98,0] 0
f_ck[98,1] 1
f_ck[98,2] 0
f_ck[98,3] 0
f_ck[98,4] 0
f_ck[99,0] 0
f_ck[99,1] 1
f_ck[99,2] 0
f_ck[99,3] 0
f_ck[99,4] 0
x_ijk[0,1,0] 0
x_ijk[0,1,1] 0
x_ijk[0,1,2] 0
x_ijk[0,1,3] 0
x_ijk[0,2,0] 0
x_ijk[0,2,1] 0
x_ijk[0,2,2] 0
x_ijk[0,2,3] 0
x_ijk[0,3,0] 0
x_ijk[0,3,1] 0
x_ijk[0,3,2] 0
x_ijk[0,3,3] 0
x_ijk[0,4,0] 0
x_ijk[0,4,1] 0
x_ijk[0,4,2] 0
x_ijk[0,4,3] 0
x_ijk[0,5,0] 0
x_ijk[0,5,1] 0
x_ijk[0,5,2] 0
x_ijk[0,5,3] 1
x_ijk[0,6,0] 0
x_ijk[0,6,1] 1
x_ijk[0,6,2] 0
x_ijk[0,6,3] 0
x_ijk[1,0,0] 0
x_ijk[1,0,1] 1
x_ijk[1,0,2] 0
x_ijk[1,0,3] 0
x_ijk[1,2,0] 0
x_ijk[1,2,1] 0
x_ijk[1,2,2] 0
x_ijk[1,2,3] 0
x_ijk[1,3,0] 0
x_ijk[1,3,1] 0
x_ijk[1,3,2] 0
x_ijk[1,3,3] 0
x_ijk[1,4,0] 0
x_ijk[1,4,1] 0
x_ijk[1,4,2] 0
x_ijk[1,4,3] 1
x_ijk[1,5,0] 0
x_ijk[1,5,1] 0
x_ijk[1,5,2] 0
x_ijk[1,5,3] 0
x_ijk[1,6,0] 0
x_ijk[1,6,1] 0
x_ijk[1,6,2] 0
x_ijk[1,6,3] 0
x_ijk[2,0,0] 0
x_ijk[2,0,1] 0
x_ijk[2,0,2] 0
x_ijk[2,0,3] 1
x_ijk[2,1,0] 0
x_ijk[2,1,1] 0
x_ijk[2,1,2] 0
x_ijk[2,1,3] 0
x_ijk[2,3,0] 0
x_ijk[2,3,1] 0
x_ijk[2,3,2] 0
x_ijk[2,3,3] 0
x_ijk[2,4,0] 0
x_ijk[2,4,1] 0
x_ijk[2,4,2] 0
x_ijk[2,4,3] 0
x_ijk[2,5,0] 0
x_ijk[2,5,1] 0
x_ijk[2,5,2] 0
x_ijk[2,5,3] 0
x_ijk[2,6,0] 0
x_ijk[2,6,1] 0
x_ijk[2,6,2] 0
x_ijk[2,6,3] 0
x_ijk[3,0,0] 0
x_ijk[3,0,1] 0
x_ijk[3,0,2] 0
x_ijk[3,0,3] 0
x_ijk[3,1,0] 0
x_ijk[3,1,1] 0
x_ijk[3,1,2] 0
x_ijk[3,1,3] 0
x_ijk[3,2,0] 0
x_ijk[3,2,1] 0
x_ijk[3,2,2] 0
x_ijk[3,2,3] 0
x_ijk[3,4,0] 0
x_ijk[3,4,1] 0
x_ijk[3,4,2] 0
x_ijk[3,4,3] 0
x_ijk[3,5,0] 0
x_ijk[3,5,1] 1
x_ijk[3,5,2] 0
x_ijk[3,5,3] 0
x_ijk[3,6,0] 0
x_ijk[3,6,1] 0
x_ijk[3,6,2] 0
x_ijk[3,6,3] 0
x_ijk[4,0,0] 0
x_ijk[4,0,1] 0
x_ijk[4,0,2] 0
x_ijk[4,0,3] 0
x_ijk[4,1,0] 0
x_ijk[4,1,1] 1
x_ijk[4,1,2] 0
x_ijk[4,1,3] 0
x_ijk[4,2,0] 0
x_ijk[4,2,1] 0
x_ijk[4,2,2] 0
x_ijk[4,2,3] 1
x_ijk[4,3,0] 0
x_ijk[4,3,1] 0
x_ijk[4,3,2] 0
x_ijk[4,3,3] 0
x_ijk[4,5,0] 0
x_ijk[4,5,1] 0
x_ijk[4,5,2] 0
x_ijk[4,5,3] 0
x_ijk[4,6,0] 0
x_ijk[4,6,1] 0
x_ijk[4,6,2] 0
x_ijk[4,6,3] 0
x_ijk[5,0,0] 0
x_ijk[5,0,1] 0
x_ijk[5,0,2] 0
x_ijk[5,0,3] 0
x_ijk[5,1,0] 0
x_ijk[5,1,1] 0
x_ijk[5,1,2] 0
x_ijk[5,1,3] 1
x_ijk[5,2,0] 0
x_ijk[5,2,1] 0
x_ijk[5,2,2] 0
x_ijk[5,2,3] 0
x_ijk[5,3,0] 0
x_ijk[5,3,1] 0
x_ijk[5,3,2] 0
x_ijk[5,3,3] 0
x_ijk[5,4,0] 0
x_ijk[5,4,1] 1
x_ijk[5,4,2] 0
x_ijk[5,4,3] 0
x_ijk[5,6,0] 0
x_ijk[5,6,1] 0
x_ijk[5,6,2] 0
x_ijk[5,6,3] 0
x_ijk[6,0,0] 0
x_ijk[6,0,1] 0
x_ijk[6,0,2] 0
x_ijk[6,0,3] 0
x_ijk[6,1,0] 0
x_ijk[6,1,1] 0
x_ijk[6,1,2] 0
x_ijk[6,1,3] 0
x_ijk[6,2,0] 0
x_ijk[6,2,1] 0
x_ijk[6,2,2] 0
x_ijk[6,2,3] 0
x_ijk[6,3,0] 0
x_ijk[6,3,1] 1
x_ijk[6,3,2] 0
x_ijk[6,3,3] 0
x_ijk[6,4,0] 0
x_ijk[6,4,1] 0
x_ijk[6,4,2] 0
x_ijk[6,4,3] 0
x_ijk[6,5,0] 0
x_ijk[6,5,1] 0
x_ijk[6,5,2] 0
x_ijk[6,5,3] 0
p_jk[0,0] 0
p_jk[0,1] 0
p_jk[0,2] 0
p_jk[0,3] 0
p_jk[1,0] 0
p_jk[1,1] 11
p_jk[1,2] 0
p_jk[1,3] 1
p_jk[2,0] 0
p_jk[2,1] 0
p_jk[2,2] 0
p_jk[2,3] 12
p_jk[3,0] 0
p_jk[3,1] 11
p_jk[3,2] 0
p_jk[3,3] 0
p_jk[4,0] 0
p_jk[4,1] 10
p_jk[4,2] 0
p_jk[4,3] 4
p_jk[5,0] 0
p_jk[5,1] 8
p_jk[5,2] 0
p_jk[5,3] 3
p_jk[6,0] 0
p_jk[6,1] 10
p_jk[6,2] 0
p_jk[6,3] 0
d_jk[0,0] 0
d_jk[0,1] 0
d_jk[0,2] 0
d_jk[0,3] 0
d_jk[1,0] 0
d_jk[1,1] 6
d_jk[1,2] 0
d_jk[1,3] 2
d_jk[2,0] 0
d_jk[2,1] 0
d_jk[2,2] 0
d_jk[2,3] 12
d_jk[3,0] 0
d_jk[3,1] 8
d_jk[3,2] 0
d_jk[3,3] 0
d_jk[4,0] 0
d_jk[4,1] 4
d_jk[4,2] 0
d_jk[4,3] 3
d_jk[5,0] 0
d_jk[5,1] 4
d_jk[5,2] 0
d_jk[5,3] 3
d_jk[6,0] 0
d_jk[6,1] 9
d_jk[6,2] 0
d_jk[6,3] 0
y_ijk[0,0,0] 0
y_ijk[0,0,1] 0
y_ijk[0,0,2] 0
y_ijk[0,0,3] 0
y_ijk[0,1,0] 0
y_ijk[0,1,1] 0
y_ijk[0,1,2] 0
y_ijk[0,1,3] 0
y_ijk[0,2,0] 0
y_ijk[0,2,1] 0
y_ijk[0,2,2] 0
y_ijk[0,2,3] 0
y_ijk[0,3,0] 0
y_ijk[0,3,1] 0
y_ijk[0,3,2] 0
y_ijk[0,3,3] 0
y_ijk[0,4,0] 0
y_ijk[0,4,1] 0
y_ijk[0,4,2] 0
y_ijk[0,4,3] 0
y_ijk[0,5,0] 0
y_ijk[0,5,1] 0
y_ijk[0,5,2] 0
y_ijk[0,5,3] 0
y_ijk[0,6,0] 0
y_ijk[0,6,1] 0
y_ijk[0,6,2] 0
y_ijk[0,6,3] 0
y_ijk[1,0,0] 0
y_ijk[1,0,1] 50
y_ijk[1,0,2] 0
y_ijk[1,0,3] 0
y_ijk[1,1,0] 0
y_ijk[1,1,1] 0
y_ijk[1,1,2] 0
y_ijk[1,1,3] 0
y_ijk[1,2,0] 0
y_ijk[1,2,1] 0
y_ijk[1,2,2] 0
y_ijk[1,2,3] 0
y_ijk[1,3,0] 0
y_ijk[1,3,1] 0
y_ijk[1,3,2] 0
y_ijk[1,3,3] 0
y_ijk[1,4,0] 0
y_ijk[1,4,1] 0
y_ijk[1,4,2] 0
y_ijk[1,4,3] 4
y_ijk[1,5,0] 0
y_ijk[1,5,1] 0
y_ijk[1,5,2] 0
y_ijk[1,5,3] 0
y_ijk[1,6,0] 0
y_ijk[1,6,1] 0
y_ijk[1,6,2] 0
y_ijk[1,6,3] 0
y_ijk[2,0,0] 0
y_ijk[2,0,1] 0
y_ijk[2,0,2] 0
y_ijk[2,0,3] 20
y_ijk[2,1,0] 0
y_ijk[2,1,1] 0
y_ijk[2,1,2] 0
y_ijk[2,1,3] 0
y_ijk[2,2,0] 0
y_ijk[2,2,1] 0
y_ijk[2,2,2] 0
y_ijk[2,2,3] 0
y_ijk[2,3,0] 0
y_ijk[2,3,1] 0
y_ijk[2,3,2] 0
y_ijk[2,3,3] 0
y_ijk[2,4,0] 0
y_ijk[2,4,1] 0
y_ijk[2,4,2] 0
y_ijk[2,4,3] 0
y_ijk[2,5,0] 0
y_ijk[2,5,1] 0
y_ijk[2,5,2] 0
y_ijk[2,5,3] 0
y_ijk[2,6,0] 0
y_ijk[2,6,1] 0
y_ijk[2,6,2] 0
y_ijk[2,6,3] 0
y_ijk[3,0,0] 0
y_ijk[3,0,1] 0
y_ijk[3,0,2] 0
y_ijk[3,0,3] 0
y_ijk[3,1,0] 0
y_ijk[3,1,1] 0
y_ijk[3,1,2] 0
y_ijk[3,1,3] 0
y_ijk[3,2,0] 0
y_ijk[3,2,1] 0
y_ijk[3,2,2] 0
y_ijk[3,2,3] 0
y_ijk[3,3,0] 0
y_ijk[3,3,1] 0
y_ijk[3,3,2] 0
y_ijk[3,3,3] 0
y_ijk[3,4,0] 0
y_ijk[3,4,1] 0
y_ijk[3,4,2] 0
y_ijk[3,4,3] 0
y_ijk[3,5,0] 0
y_ijk[3,5,1] 21
y_ijk[3,5,2] 0
y_ijk[3,5,3] 0
y_ijk[3,6,0] 0
y_ijk[3,6,1] 0
y_ijk[3,6,2] 0
y_ijk[3,6,3] 0
y_ijk[4,0,0] 0
y_ijk[4,0,1] 0
y_ijk[4,0,2] 0
y_ijk[4,0,3] 0
y_ijk[4,1,0] 0
y_ijk[4,1,1] 39
y_ijk[4,1,2] 0
y_ijk[4,1,3] 0
y_ijk[4,2,0] 0
y_ijk[4,2,1] 0
y_ijk[4,2,2] 0
y_ijk[4,2,3] 8
y_ijk[4,3,0] 0
y_ijk[4,3,1] 0
y_ijk[4,3,2] 0
y_ijk[4,3,3] 0
y_ijk[4,4,0] 0
y_ijk[4,4,1] 0
y_ijk[4,4,2] 0
y_ijk[4,4,3] 0
y_ijk[4,5,0] 0
y_ijk[4,5,1] 0
y_ijk[4,5,2] 0
y_ijk[4,5,3] 0
y_ijk[4,6,0] 0
y_ijk[4,6,1] 0
y_ijk[4,6,2] 0
y_ijk[4,6,3] 0
y_ijk[5,0,0] 0
y_ijk[5,0,1] 0
y_ijk[5,0,2] 0
y_ijk[5,0,3] 0
y_ijk[5,1,0] 0
y_ijk[5,1,1] 0
y_ijk[5,1,2] 0
y_ijk[5,1,3] 3
y_ijk[5,2,0] 0
y_ijk[5,2,1] 0
y_ijk[5,2,2] 0
y_ijk[5,2,3] 0
y_ijk[5,3,0] 0
y_ijk[5,3,1] 0
y_ijk[5,3,2] 0
y_ijk[5,3,3] 0
y_ijk[5,4,0] 0
y_ijk[5,4,1] 29
y_ijk[5,4,2] 0
y_ijk[5,4,3] 0
y_ijk[5,5,0] 0
y_ijk[5,5,1] 0
y_ijk[5,5,2] 0
y_ijk[5,5,3] 0
y_ijk[5,6,0] 0
y_ijk[5,6,1] 0
y_ijk[5,6,2] 0
y_ijk[5,6,3] 0
y_ijk[6,0,0] 0
y_ijk[6,0,1] 0
y_ijk[6,0,2] 0
y_ijk[6,0,3] 0
y_ijk[6,1,0] 0
y_ijk[6,1,1] 0
y_ijk[6,1,2] 0
y_ijk[6,1,3] 0
y_ijk[6,2,0] 0
y_ijk[6,2,1] 0
y_ijk[6,2,2] 0
y_ijk[6,2,3] 0
y_ijk[6,3,0] 0
y_ijk[6,3,1] 10
y_ijk[6,3,2] 0
y_ijk[6,3,3] 0
y_ijk[6,4,0] 0
y_ijk[6,4,1] 0
y_ijk[6,4,2] 0
y_ijk[6,4,3] 0
y_ijk[6,5,0] 0
y_ijk[6,5,1] 0
y_ijk[6,5,2] 0
y_ijk[6,5,3] 0
y_ijk[6,6,0] 0
y_ijk[6,6,1] 0
y_ijk[6,6,2] 0
y_ijk[6,6,3] 0
z_ijk[0,0,0] 0
z_ijk[0,0,1] 0
z_ijk[0,0,2] 0
z_ijk[0,0,3] 0
z_ijk[0,1,0] 0
z_ijk[0,1,1] 0
z_ijk[0,1,2] 0
z_ijk[0,1,3] 0
z_ijk[0,2,0] 0
z_ijk[0,2,1] 0
z_ijk[0,2,2] 0
z_ijk[0,2,3] 0
z_ijk[0,3,0] 0
z_ijk[0,3,1] 0
z_ijk[0,3,2] 0
z_ijk[0,3,3] 0
z_ijk[0,4,0] 0
z_ijk[0,4,1] 0
z_ijk[0,4,2] 0
z_ijk[0,4,3] 0
z_ijk[0,5,0] 0
z_ijk[0,5,1] 0
z_ijk[0,5,2] 0
z_ijk[0,5,3] 20
z_ijk[0,6,0] 0
z_ijk[0,6,1] 31
z_ijk[0,6,2] 0
z_ijk[0,6,3] 0
z_ijk[1,0,0] 0
z_ijk[1,0,1] 0
z_ijk[1,0,2] 0
z_ijk[1,0,3] 0
z_ijk[1,1,0] 0
z_ijk[1,1,1] 0
z_ijk[1,1,2] 0
z_ijk[1,1,3] 0
z_ijk[1,2,0] 0
z_ijk[1,2,1] 0
z_ijk[1,2,2] 0
z_ijk[1,2,3] 0
z_ijk[1,3,0] 0
z_ijk[1,3,1] 0
z_ijk[1,3,2] 0
z_ijk[1,3,3] 0
z_ijk[1,4,0] 0
z_ijk[1,4,1] 0
z_ijk[1,4,2] 0
z_ijk[1,4,3] 15
z_ijk[1,5,0] 0
z_ijk[1,5,1] 0
z_ijk[1,5,2] 0
z_ijk[1,5,3] 0
z_ijk[1,6,0] 0
z_ijk[1,6,1] 0
z_ijk[1,6,2] 0
z_ijk[1,6,3] 0
z_ijk[2,0,0] 0
z_ijk[2,0,1] 0
z_ijk[2,0,2] 0
z_ijk[2,0,3] 0
z_ijk[2,1,0] 0
z_ijk[2,1,1] 0
z_ijk[2,1,2] 0
z_ijk[2,1,3] 0
z_ijk[2,2,0] 0
z_ijk[2,2,1] 0
z_ijk[2,2,2] 0
z_ijk[2,2,3] 0
z_ijk[2,3,0] 0
z_ijk[2,3,1] 0
z_ijk[2,3,2] 0
z_ijk[2,3,3] 0
z_ijk[2,4,0] 0
z_ijk[2,4,1] 0
z_ijk[2,4,2] 0
z_ijk[2,4,3] 0
z_ijk[2,5,0] 0
z_ijk[2,5,1] 0
z_ijk[2,5,2] 0
z_ijk[2,5,3] 0
z_ijk[2,6,0] 0
z_ijk[2,6,1] 0
z_ijk[2,6,2] 0
z_ijk[2,6,3] 0
z_ijk[3,0,0] 0
z_ijk[3,0,1] 0
z_ijk[3,0,2] 0
z_ijk[3,0,3] 0
z_ijk[3,1,0] 0
z_ijk[3,1,1] 0
z_ijk[3,1,2] 0
z_ijk[3,1,3] 0
z_ijk[3,2,0] 0
z_ijk[3,2,1] 0
z_ijk[3,2,2] 0
z_ijk[3,2,3] 0
z_ijk[3,3,0] 0
z_ijk[3,3,1] 0
z_ijk[3,3,2] 0
z_ijk[3,3,3] 0
z_ijk[3,4,0] 0
z_ijk[3,4,1] 0
z_ijk[3,4,2] 0
z_ijk[3,4,3] 0
z_ijk[3,5,0] 0
z_ijk[3,5,1] 14
z_ijk[3,5,2] 0
z_ijk[3,5,3] 0
z_ijk[3,6,0] 0
z_ijk[3,6,1] 0
z_ijk[3,6,2] 0
z_ijk[3,6,3] 0
z_ijk[4,0,0] 0
z_ijk[4,0,1] 0
z_ijk[4,0,2] 0
z_ijk[4,0,3] 0
z_ijk[4,1,0] 0
z_ijk[4,1,1] 6
z_ijk[4,1,2] 0
z_ijk[4,1,3] 0
z_ijk[4,2,0] 0
z_ijk[4,2,1] 0
z_ijk[4,2,2] 0
z_ijk[4,2,3] 12
z_ijk[4,3,0] 0
z_ijk[4,3,1] 0
z_ijk[4,3,2] 0
z_ijk[4,3,3] 0
z_ijk[4,4,0] 0
z_ijk[4,4,1] 0
z_ijk[4,4,2] 0
z_ijk[4,4,3] 0
z_ijk[4,5,0] 0
z_ijk[4,5,1] 0
z_ijk[4,5,2] 0
z_ijk[4,5,3] 0
z_ijk[4,6,0] 0
z_ijk[4,6,1] 0
z_ijk[4,6,2] 0
z_ijk[4,6,3] 0
z_ijk[5,0,0] 0
z_ijk[5,0,1] 0
z_ijk[5,0,2] 0
z_ijk[5,0,3] 0
z_ijk[5,1,0] 0
z_ijk[5,1,1] 0
z_ijk[5,1,2] 0
z_ijk[5,1,3] 17
z_ijk[5,2,0] 0
z_ijk[5,2,1] 0
z_ijk[5,2,2] 0
z_ijk[5,2,3] 0
z_ijk[5,3,0] 0
z_ijk[5,3,1] 0
z_ijk[5,3,2] 0
z_ijk[5,3,3] 0
z_ijk[5,4,0] 0
z_ijk[5,4,1] 10
z_ijk[5,4,2] 0
z_ijk[5,4,3] 0
z_ijk[5,5,0] 0
z_ijk[5,5,1] 0
z_ijk[5,5,2] 0
z_ijk[5,5,3] 0
z_ijk[5,6,0] 0
z_ijk[5,6,1] 0
z_ijk[5,6,2] 0
z_ijk[5,6,3] 0
z_ijk[6,0,0] 0
z_ijk[6,0,1] 0
z_ijk[6,0,2] 0
z_ijk[6,0,3] 0
z_ijk[6,1,0] 0
z_ijk[6,1,1] 0
z_ijk[6,1,2] 0
z_ijk[6,1,3] 0
z_ijk[6,2,0] 0
z_ijk[6,2,1] 0
z_ijk[6,2,2] 0
z_ijk[6,2,3] 0
z_ijk[6,3,0] 0
z_ijk[6,3,1] 22
z_ijk[6,3,2] 0
z_ijk[6,3,3] 0
z_ijk[6,4,0] 0
z_ijk[6,4,1] 0
z_ijk[6,4,2] 0
z_ijk[6,4,3] 0
z_ijk[6,5,0] 0
z_ijk[6,5,1] 0
z_ijk[6,5,2] 0
z_ijk[6,5,3] 0
z_ijk[6,6,0] 0
z_ijk[6,6,1] 0
z_ijk[6,6,2] 0
z_ijk[6,6,3] 0
t_jk[0,0] 0
t_jk[0,1] 40
t_jk[0,2] 0
t_jk[0,3] 39
t_jk[1,0] 0
t_jk[1,1] 8.3499999999998067e+01
t_jk[1,2] 0
t_jk[1,3] 5.4999999999999773e+01
t_jk[2,0] 0
t_jk[2,1] 0
t_jk[2,2] 0
t_jk[2,3] 61.3333333333328
t_jk[3,0] 0
t_jk[3,1] 5.6666666666666060e+01
t_jk[3,2] 0
t_jk[3,3] 0
t_jk[4,0] 0
t_jk[4,1] 8.0833333333331780e+01
t_jk[4,2] 0
t_jk[4,3] 5.6499999999999659e+01
t_jk[5,0] 0
t_jk[5,1] 7.5166666666665492e+01
t_jk[5,2] 0
t_jk[5,3] 50
t_jk[6,0] 0
t_jk[6,1] 53
t_jk[6,2] 0
t_jk[6,3] 0
